Instance name:    bar-n100-6
Authors:          PDPTW Solver
Date:             2025-11-20
Reference:        LNS with SA/RTR
Solution
Route 1 : 20 34 40 48 90 98 70 84 42 21 71 92 19 28 9 69 78 3 11 61 53 59 39 89
Route 2 : 4 54 32 31 81 29 82 8 79 18 68 7 23 73 57 13 26 63 76 49 2 52 58 99 15 46 96 65
Route 3 : 25 38 88 75 12 43 62 93 16 66 6 44 94 56 36 33 83 86
Route 4 : 22 72 37 47 97 41 91 1 30 51 87 5 17 67 45 27 77 80 95 35 85 55 14 64 10 60 24 50 100 74
